0 79 
1 79 
2 79 
3 78 
4 77 
5 78 
6 77 
7 75 
8 73 
9 74 
10 72 
11 71 
12 71 
13 72 
14 71 
15 68 
16 67 
17 68 
18 67 
19 66 
20 54 
21 58 
22 61 
23 61 
24 60 
25 58 
26 57 
27 54 
28 52 
29 53 
30 51 
31 51 
32 47 
33 44 
34 44 
35 42 
36 40 
37 37 
38 34 
39 28 
40 29 
41 30 
42 27 
43 30 
44 29 
45 26 
46 25 
47 23 
48 19 
49 17 
50 19 
51 15 
52 13 
53 12 
54 11 
55 10 
56 9 
57 7 
58 6 
59 5 
60 4 
61 2 
62 2 
63 2 
64 2 
65 0 
66 0 
67 0 
68 0 
69 0 
70 0 
71 0 
72 0 
73 0 
74 0 

